# Solution for model Objective
# Objective value = 9
M 2
W1 1
W9 1
W10 1
W14 1
W15 1
W16 1
W17 1
W0 0
W2 0
W3 2
W4 0
W5 0
W6 0
W7 0
W8 0
W11 0
W12 0
W13 2
d0_1 0
d0_2 0
d0_3 0
d0_4 1
d0_5 0
d0_6 0
d0_7 0
d0_8 0
d0_9 0
d0_0 0
d1_1 0
d1_2 1
d1_3 0
d1_4 0
d1_5 0
d1_6 0
d1_7 0
d1_8 0
d1_9 0
d1_0 0
d2_1 0
d2_2 0
d2_3 1
d2_4 0
d2_5 0
d2_6 0
d2_7 0
d2_8 0
d2_9 0
d2_0 0
d3_1 1
d3_2 0
d3_3 0
d3_4 0
d3_5 0
d3_6 0
d3_7 0
d3_8 0
d3_9 0
d3_0 0
